 &CONTROL
                 calculation = 'bands' ,
                      outdir = './work' ,
                  pseudo_dir = 'your pseudopotenisl directory' ,
                      prefix = 'graphene' ,
 &SYSTEM
                       ibrav = 4,
                   celldm(1) = 4.647806,
                   celldm(3) = 6.098768322085,
                         nat = 2,
                        ntyp = 1,
                     ecutwfc = 40 ,
                     ecutrho = 160 ,
                        nbnd = 16,
                 occupations = 'smearing' ,
                     degauss = 0.0001 ,
 /
 &ELECTRONS
                    conv_thr = 1.0d-9 ,
                 mixing_mode = 'plain' ,
                 mixing_beta = 0.7 ,
             diagonalization = 'david' ,
 /
ATOMIC_SPECIES
    C   12.01078  C.pbe-n-kjpaw_psl.1.0.0.UPF
ATOMIC_POSITIONS crystal 
C           0.33333333   0.66666666   0.00000000
C           0.66666666   0.33333333   0.00000000
K_POINTS crystal_b
4
   0.333333333    0.333333333    0.000000000     36.000000000
   0.000000000    0.000000000    0.000000000     32.000000000
   0.500000000    0.000000000    0.000000000     22.000000000
   0.333333333    0.333333333    0.000000000      1.000000000
