&CONTROL
   calculation = 'bands'
   prefix = 'HfSe2'
   outdir = './work'
   wf_collect = .true.
   pseudo_dir = '/home/mainadmin/media/HDD/research/pseudopotential'
/

&SYSTEM
   ibrav = 0
   nat = 27
   ntyp = 2
   ecutwfc = 70
   ecutrho = 280
   nbnd = 250
   nosym = .TRUE.	
/

&ELECTRONS
   conv_thr = 1d-6
   mixing_beta = 0.3
   electron_maxstep = 500
   diagonalization = 'cg'
/

ATOMIC_SPECIES
Hf 178.49 Hf.pbe-spn-kjpaw_psl.1.0.0.UPF
Se 78.96 Se.pbe-dn-kjpaw_psl.1.0.0.UPF

CELL_PARAMETERS (angstrom)
5.634334368  9.758953377  0.00000000
-5.634334368  9.758953377 0.00000000
0.00000000 0.00000000 25.00000000

ATOMIC_POSITIONS (angstrom)
   Hf    0.0000000000    0.0000000000    0.0000000000
   Se    1.8781114560   -1.0843281750    1.5680924000
   Se    1.8781114560    1.0843281750   -1.5680924000
   Hf    1.8781114560   -3.2529844590    0.0000000000
   Se    3.7562229120   -4.3373126340    1.5680924000
   Se    3.7562229120   -2.1686562840   -1.5680924000
   Hf    3.7562229120   -6.5059689180    0.0000000000
   Se    5.6343343680   -7.5902970930    1.5680924000
   Se    5.6343343680   -5.4216407430   -1.5680924000
   Hf    1.8781114560    3.2529844590    0.0000000000
   Se    3.7562229120    2.1686562840    1.5680924000
   Se    3.7562229120    4.3373126340   -1.5680924000
   Hf    3.7562229120    0.0000000000    0.0000000000
   Se    5.6343343680   -1.0843281750    1.5680924000
   Se    5.6343343680    1.0843281750   -1.5680924000
   Hf    5.6343343680   -3.2529844590    0.0000000000
   Se    7.5124458240   -4.3373126340    1.5680924000
   Se    7.5124458240   -2.1686562840   -1.5680924000
   Hf    3.7562229120    6.5059689180    0.0000000000
   Se    5.6343343680    5.4216407430    1.5680924000
   Se    5.6343343680    7.5902970930   -1.5680924000
   Hf    5.6343343680    3.2529844590    0.0000000000
   Se    7.5124458240    2.1686562840    1.5680924000
   Se    7.5124458240    4.3373126340   -1.5680924000
   Hf    7.5124458240    0.0000000000    0.0000000000
   Se    9.3905572800   -1.0843281750    1.5680924000
   Se    9.3905572800    1.0843281750   -1.5680924000


K_POINTS tpiba
78
        0.0000000   0.0000000   0.0000000    1
        0.0500000  -0.0288675   0.0000000    2
        0.1000000  -0.0577350   0.0000000    3
        0.1500000  -0.0866025   0.0000000    4
        0.2000000  -0.1154701   0.0000000    5
        0.2500000  -0.1443376   0.0000000    6
        0.3000000  -0.1732051   0.0000000    7
        0.3500000  -0.2020726   0.0000000    8
        0.4000000  -0.2309401   0.0000000    9
        0.4500000  -0.2598076   0.0000000   10
        0.5000000  -0.2886751   0.0000000   11
       -0.4500000   0.2598076   0.0000000   12
       -0.4000000   0.2309401   0.0000000   13
       -0.3500000   0.2020726   0.0000000   14
       -0.3000000   0.1732051   0.0000000   15
       -0.2500000   0.1443376   0.0000000   16
       -0.2000000   0.1154701   0.0000000   17
       -0.1500000   0.0866025   0.0000000   18
       -0.1000000   0.0577350   0.0000000   19
       -0.0500000   0.0288675   0.0000000   20
        0.5166660  -0.2598076   0.0000000   21
        0.5333320  -0.2309401   0.0000000   22
        0.5499980  -0.2020726   0.0000000   23
        0.5666640  -0.1732051   0.0000000   24
        0.5833300  -0.1443376   0.0000000   25
        0.5999960  -0.1154701   0.0000000   26
        0.6166620  -0.0866025   0.0000000   27
        0.6333280  -0.0577350   0.0000000   28
        0.6499940  -0.0288675   0.0000000   29
        0.6666600  -0.0000000   0.0000000   30
       -0.3166740  -0.5484828   0.0000000   31
       -0.3000080  -0.5196152   0.0000000   32
       -0.2833420  -0.4907477   0.0000000   33
       -0.2666760  -0.4618802   0.0000000   34
       -0.2500100  -0.4330127   0.0000000   35
       -0.2333440  -0.4041452   0.0000000   36
       -0.2166780  -0.3752777   0.0000000   37
       -0.2000120  -0.3464102   0.0000000   38
       -0.1833460  -0.3175426   0.0000000   39
       -0.1666800  -0.2886751   0.0000000   40
       -0.1500140  -0.2598076   0.0000000   41
       -0.1333480  -0.2309401   0.0000000   42
       -0.1166820  -0.2020726   0.0000000   43
       -0.1000160  -0.1732051   0.0000000   44
       -0.0833500  -0.1443376   0.0000000   45
       -0.0666840  -0.1154701   0.0000000   46
       -0.0500180  -0.0866025   0.0000000   47
       -0.0333520  -0.0577350   0.0000000   48
       -0.0166860  -0.0288675   0.0000000   49
       -0.0000200   0.0000000   0.0000000   50
       -0.0666860   0.0000000   0.0000000   51
       -0.1333520   0.0000000   0.0000000   52
       -0.2000180   0.0000000   0.0000000   53
       -0.2666840   0.0000000   0.0000000   54
       -0.3333500   0.0000000   0.0000000   55
       -0.4000160   0.0000000   0.0000000   56
       -0.4666820   0.0000000   0.0000000   57
       -0.5333480   0.0000000   0.0000000   58
       -0.6000140   0.0000000   0.0000000   59
        0.3333200   0.5773503   0.0000000   60
        0.2666540   0.5773503   0.0000000   61
        0.1999880   0.5773503   0.0000000   62
        0.1333220   0.5773503   0.0000000   63
        0.0666560   0.5773503   0.0000000   64
       -0.0000100   0.5773503   0.0000000   65
       -0.0666760   0.5773503   0.0000000   66
       -0.1333420   0.5773503   0.0000000   67
       -0.2000080   0.5773503   0.0000000   68
       -0.2666740   0.5773503   0.0000000   69
        0.5999940   0.0000000   0.0000000   70
        0.5333280   0.0000000   0.0000000   71
        0.4666620   0.0000000   0.0000000   72
        0.3999960   0.0000000   0.0000000   73
        0.3333300   0.0000000   0.0000000   74
        0.2666640   0.0000000   0.0000000   75
        0.1999980   0.0000000   0.0000000   76
        0.1333320   0.0000000   0.0000000   77
        0.0666660   0.0000000   0.0000000   78

